1577229
57,75,86,27,69,70,14,21,48,80,4,67,79,3,25,2,59,84,51,81,46,94,16,107,29,52,5,101,1,98,35,45,82,34,83,63,20,44,85,43,95,32,61,6,30,103,56,92,74,109,24,90,9,77,66,10,64,54,62,19,76,50,71,47,31,39,108,42,65,7,18,87,73,36,12,33,88,106,60,55,78,40,68,8,28,105,102,58,104,22,23,15,17,53,100,13,96,93,99,97,11,89,91,49,41,37,26,38,72